p cnf 658 161
-11 -496 -537 -603 0
-374 -551 -633 0
-8 -15 -496 -538 -603 0
-5 -374 -599 -651 0
-2 -11 -658 0
-536 -551 -658 0
-534 -561 -659 0
-534 -570 -705 0
-6 -959 0
-6 -1035 0
-6 -1081 0
-534 -609 -1915 0
-534 -609 -1942 0
-6 -19 -36 -1985 0
-3 -6 -374 -2334 0
-11 -374 -2335 0
-377 -541 -551 -2335 0
-5 -374 -2336 0
-6 -374 -2337 0
-374 -2379 0
-374 -571 -597 -2380 0
-5 -374 -599 -2381 0
-534 -2389 0
-2 -11 -2390 0
-2 -541 -551 -2390 0
-8 -15 -538 -2391 0
-15 -2392 0
-534 -561 -2393 0
-536 -551 -563 -2394 0
-534 -561 -2778 0
-3 -6 -3261 0
-3 -6 -3337 0
-3 -6 -3383 0
-3 -6 -600 -3717 0
-15 -26 -3899 0
-571 -597 -4104 0
-571 -597 -4106 0
-571 -597 -4182 0
-571 -597 -4230 0
-3 -6 -21 -4366 0
-11 -4500 0
-541 -551 -4500 0
-541 -551 -4504 0
-5 -5156 0
-5 -5180 0
-551 -5289 0
-7 -10 -17 -18 -27 -39 -41 -42 -44 -45 -46 -47 -49 -50 -51 -52 -53 -54 -56 -58 -59 -60 -61 -62 -64 -66 -67 -68 -71 -74 -75 -76 -78 -80 -81 -82 -83 -85 -86 -88 -89 -91 -92 -93 -94 -95 -96 -97 -98 -101 -102 -103 -106 -107 -108 -115 -116 -118 -119 -121 -125 -126 -127 -128 -130 -131 -132 -135 -137 -139 -140 -142 -146 -148 -149 -150 -151 -152 -153 -154 -155 -156 -158 -159 -166 -168 -171 -173 -176 -177 -178 -180 -181 -182 -183 -184 -185 -188 -190 -191 -193 -194 -198 -199 -200 -203 -205 -207 -208 -210 -211 -212 -213 -216 -219 -220 -222 -224 -225 -227 -230 -231 -232 -233 -235 -237 -238 -240 -241 -242 -243 -244 -246 -247 -248 -251 -252 -254 -255 -256 -257 -259 -260 -261 -263 -264 -265 -269 -271 -273 -274 -275 -277 -278 -279 -280 -281 -282 -284 -285 -286 -288 -290 -291 -292 -294 -295 -296 -297 -299 -301 -302 -304 -306 -307 -308 -309 -310 -313 -314 -315 -316 -317 -318 -319 -321 -324 -326 -327 -328 -329 -333 -338 -340 -341 -343 -380 -381 -413 -415 -424 -432 -436 -441 -446 -447 -449 -452 -453 -455 -456 -457 -458 -459 -460 -461 -462 -471 -472 -473 -477 -478 -479 -483 -484 -485 -486 -488 -492 -493 -495 -497 -498 -499 -500 -503 -504 -505 -506 -507 -508 -509 -514 -516 -517 -518 -519 -520 -521 -522 -523 -524 -525 -526 -527 -528 -529 -530 -531 -532 -533 -534 -535 -536 -537 -538 -539 -540 -541 -542 -543 -544 -545 -546 -547 -548 -549 -550 -551 -552 -553 -554 -555 -556 -557 -558 -559 -560 -561 -562 -563 -564 -565 -566 -567 -568 -569 -570 -571 -572 -573 -574 -575 -576 -577 -578 -579 -580 -581 -582 -583 -585 -586 -587 -588 -589 -590 -591 -593 -594 -595 -596 -597 -598 -603 -604 -605 -606 -607 -608 -609 -610 -611 -612 -616 -617 -618 -622 -624 -625 -626 -627 -628 -629 -639 -640 -641 -642 -643 -644 -646 -650 -661 -662 -669 -671 -672 -676 -682 -684 -685 -686 -692 -695 -697 -698 -700 -703 -704 -707 -710 -713 -714 -715 -716 -718 -722 -724 -731 -732 -733 -734 -735 -740 -741 -745 -750 -756 -759 -760 -763 -765 -766 -786 -795 -799 -801 -810 -811 -813 -815 -818 -822 -824 -825 -832 -839 -842 -861 -868 -871 -874 -888 -897 -900 -901 -902 -908 -910 -911 -917 -923 -929 -932 -934 -949 -950 -968 -971 -972 -976 -981 -985 -991 -995 -1001 -1010 -1014 -1019 -1024 -1033 -1036 -1046 -1048 -1054 -1056 -1064 -1065 -1069 -1078 -1093 -1094 -1099 -1100 -1106 -1107 -1124 -1130 -1133 -1140 -1150 -1151 -1153 -1166 -1168 -1172 -1176 -1177 -1606 -1623 -1717 -1730 -1731 -1745 -1762 -1767 -1779 -1784 -1800 -1834 -1849 -1861 -1876 -1889 -1902 -1912 -1913 -1922 -1941 -1962 -1967 -1981 -2109 -2111 -2118 -2129 -2132 -2133 -2139 -2140 -2143 -2145 -2146 -2149 -2157 -2167 -2181 -2186 -2188 -2190 -2191 -2193 -2199 -2203 -2207 -2209 -2210 -2217 -2227 -2228 -2232 -2233 -2234 -2244 -2250 -2264 -2267 -2281 -2292 -2294 -2295 -2306 -2307 -2311 -2314 -2322 -2360 -2365 -2367 0
-7 -10 -17 -18 -27 -39 -41 -42 -44 -45 -46 -47 -49 -50 -51 -52 -53 -54 -56 -58 -59 -60 -61 -62 -64 -66 -67 -68 -71 -74 -75 -76 -78 -80 -81 -82 -83 -85 -86 -88 -89 -91 -92 -93 -94 -95 -96 -97 -98 -101 -102 -103 -106 -107 -108 -115 -116 -118 -119 -121 -125 -126 -127 -128 -130 -131 -132 -135 -137 -139 -140 -142 -146 -148 -149 -150 -151 -152 -153 -154 -155 -156 -158 -159 -166 -168 -171 -173 -176 -177 -178 -180 -181 -182 -183 -184 -185 -188 -190 -191 -193 -194 -198 -199 -200 -203 -205 -207 -208 -210 -211 -212 -213 -216 -219 -220 -222 -224 -225 -227 -230 -231 -232 -233 -235 -237 -238 -240 -241 -242 -243 -244 -246 -247 -248 -251 -252 -254 -255 -256 -257 -259 -260 -261 -263 -264 -265 -269 -271 -273 -274 -275 -277 -278 -279 -280 -281 -282 -284 -285 -286 -288 -290 -291 -292 -294 -295 -296 -297 -299 -301 -302 -304 -306 -307 -308 -309 -310 -313 -314 -315 -316 -317 -318 -319 -321 -324 -326 -327 -328 -329 -333 -338 -340 -341 -343 -380 -381 -413 -415 -424 -432 -436 -441 -446 -447 -449 -452 -453 -456 -457 -458 -459 -460 -461 -462 -471 -472 -473 -477 -478 -479 -483 -484 -485 -486 -488 -492 -493 -495 -497 -498 -499 -500 -503 -504 -505 -506 -507 -508 -509 -514 -516 -517 -518 -519 -520 -521 -522 -523 -524 -525 -526 -527 -528 -529 -530 -531 -532 -533 -534 -535 -536 -537 -538 -539 -540 -541 -542 -543 -544 -545 -546 -547 -548 -549 -550 -551 -552 -553 -554 -555 -556 -557 -558 -559 -560 -561 -562 -563 -564 -565 -566 -567 -568 -569 -570 -571 -572 -573 -574 -575 -576 -577 -578 -579 -580 -581 -582 -583 -585 -586 -587 -588 -589 -590 -591 -593 -594 -595 -596 -597 -598 -599 -603 -604 -605 -606 -607 -608 -609 -610 -611 -612 -616 -617 -618 -622 -624 -625 -626 -627 -628 -629 -639 -640 -641 -642 -643 -644 -646 -650 -661 -662 -669 -671 -672 -676 -682 -684 -685 -686 -692 -695 -697 -698 -700 -703 -704 -707 -710 -713 -714 -715 -716 -718 -722 -724 -731 -732 -733 -734 -735 -740 -741 -745 -750 -756 -759 -760 -763 -765 -766 -786 -795 -799 -801 -810 -811 -813 -815 -818 -822 -824 -825 -832 -839 -842 -861 -868 -871 -874 -888 -897 -900 -901 -902 -908 -910 -911 -917 -923 -929 -932 -934 -949 -950 -968 -971 -972 -976 -981 -985 -991 -995 -1001 -1010 -1014 -1019 -1024 -1033 -1036 -1046 -1048 -1054 -1056 -1064 -1065 -1069 -1078 -1093 -1094 -1099 -1100 -1106 -1107 -1124 -1130 -1133 -1140 -1150 -1151 -1153 -1166 -1168 -1172 -1176 -1177 -1606 -1623 -1717 -1730 -1731 -1745 -1762 -1767 -1779 -1784 -1800 -1834 -1849 -1861 -1876 -1889 -1902 -1912 -1913 -1922 -1941 -1962 -1967 -1981 -2109 -2111 -2118 -2129 -2132 -2133 -2139 -2140 -2143 -2145 -2146 -2149 -2157 -2167 -2181 -2186 -2188 -2190 -2191 -2193 -2199 -2203 -2207 -2209 -2210 -2217 -2227 -2228 -2232 -2233 -2234 -2244 -2250 -2264 -2267 -2281 -2292 -2294 -2295 -2306 -2307 -2310 -2311 -2314 -2322 -2360 -2365 0
-7 -10 -15 -17 -18 -26 -27 -39 -41 -42 -44 -45 -46 -47 -49 -50 -51 -52 -53 -54 -56 -58 -59 -60 -61 -62 -64 -66 -67 -68 -71 -74 -75 -76 -78 -80 -81 -82 -83 -85 -86 -88 -89 -91 -92 -93 -94 -95 -96 -97 -98 -101 -102 -103 -106 -107 -108 -115 -116 -118 -119 -121 -125 -126 -127 -128 -130 -131 -132 -135 -137 -139 -140 -142 -146 -148 -149 -150 -151 -152 -153 -154 -155 -156 -158 -159 -166 -168 -171 -173 -176 -177 -178 -180 -181 -182 -183 -184 -185 -188 -190 -191 -193 -194 -198 -199 -200 -203 -205 -207 -208 -210 -211 -212 -213 -216 -219 -220 -222 -224 -225 -227 -230 -231 -232 -233 -235 -237 -238 -240 -241 -242 -243 -244 -246 -247 -248 -251 -252 -254 -255 -256 -257 -259 -260 -261 -263 -264 -265 -269 -271 -273 -274 -275 -277 -278 -279 -280 -281 -282 -284 -285 -286 -288 -290 -291 -292 -294 -295 -296 -297 -299 -301 -302 -304 -306 -307 -308 -309 -310 -313 -314 -315 -316 -317 -318 -319 -321 -324 -326 -327 -328 -329 -333 -338 -340 -341 -343 -380 -381 -413 -415 -424 -432 -436 -441 -446 -447 -449 -452 -453 -456 -458 -459 -460 -461 -462 -471 -472 -473 -477 -478 -479 -483 -484 -485 -486 -488 -492 -493 -495 -497 -498 -499 -500 -503 -504 -505 -506 -507 -508 -509 -514 -516 -517 -518 -519 -520 -521 -522 -523 -524 -525 -526 -527 -528 -529 -530 -531 -532 -533 -534 -535 -536 -537 -538 -539 -540 -541 -542 -543 -544 -545 -546 -547 -548 -549 -550 -551 -552 -553 -554 -555 -556 -557 -558 -559 -560 -561 -562 -563 -564 -565 -566 -567 -568 -569 -570 -571 -572 -573 -574 -575 -576 -577 -578 -579 -580 -581 -582 -583 -585 -586 -587 -588 -589 -590 -591 -593 -594 -595 -596 -597 -598 -599 -600 -603 -604 -605 -606 -607 -608 -609 -610 -611 -612 -616 -617 -618 -622 -624 -625 -626 -627 -628 -629 -639 -640 -641 -642 -643 -644 -646 -650 -661 -662 -669 -671 -672 -676 -682 -684 -685 -686 -692 -695 -697 -698 -700 -703 -704 -707 -710 -713 -714 -715 -716 -718 -722 -724 -731 -732 -733 -734 -735 -740 -741 -745 -750 -756 -759 -760 -763 -765 -766 -786 -795 -799 -801 -810 -811 -813 -815 -818 -822 -824 -825 -832 -839 -842 -861 -868 -871 -874 -888 -897 -900 -901 -902 -908 -910 -911 -917 -923 -929 -932 -934 -949 -950 -968 -971 -972 -976 -981 -985 -991 -995 -1001 -1010 -1014 -1019 -1024 -1033 -1036 -1046 -1048 -1054 -1056 -1064 -1065 -1069 -1078 -1093 -1094 -1099 -1100 -1106 -1107 -1124 -1130 -1133 -1140 -1150 -1151 -1153 -1166 -1168 -1172 -1176 -1177 -1606 -1623 -1717 -1730 -1731 -1745 -1762 -1767 -1779 -1784 -1800 -1834 -1849 -1861 -1876 -1889 -1902 -1912 -1913 -1922 -1941 -1962 -1967 -1981 -2109 -2118 -2129 -2133 -2139 -2140 -2143 -2145 -2146 -2149 -2157 -2167 -2181 -2186 -2188 -2190 -2193 -2199 -2203 -2207 -2209 -2210 -2217 -2227 -2228 -2232 -2233 -2234 -2244 -2250 -2264 -2267 -2281 -2292 -2294 -2295 -2306 -2307 -2311 -2314 -2322 -2360 0
-7 -15 -18 -26 -27 -39 -41 -42 -44 -45 -46 -47 -49 -50 -51 -52 -53 -54 -56 -58 -59 -60 -61 -62 -64 -66 -67 -68 -71 -74 -75 -76 -78 -80 -81 -82 -83 -85 -86 -88 -89 -91 -92 -93 -94 -95 -96 -97 -98 -101 -102 -103 -106 -107 -108 -115 -116 -118 -119 -121 -125 -126 -127 -128 -130 -131 -132 -135 -137 -139 -140 -142 -146 -148 -149 -150 -151 -152 -153 -154 -155 -156 -158 -159 -166 -168 -171 -173 -176 -177 -178 -180 -181 -182 -183 -184 -185 -188 -190 -191 -193 -194 -198 -199 -200 -203 -205 -207 -208 -210 -211 -212 -213 -216 -219 -220 -222 -224 -225 -227 -230 -231 -232 -233 -235 -237 -238 -240 -241 -242 -243 -244 -246 -247 -248 -251 -252 -254 -255 -256 -257 -259 -260 -261 -263 -264 -265 -269 -271 -273 -274 -275 -277 -278 -279 -280 -281 -282 -284 -285 -286 -288 -290 -291 -292 -294 -295 -296 -297 -299 -301 -302 -304 -306 -307 -308 -309 -310 -313 -314 -315 -316 -317 -318 -319 -321 -324 -326 -327 -328 -329 -333 -338 -340 -341 -343 -380 -381 -413 -415 -424 -432 -436 -441 -446 -447 -449 -452 -453 -456 -458 -459 -460 -461 -462 -471 -472 -473 -477 -478 -479 -483 -484 -485 -486 -488 -492 -493 -495 -497 -498 -499 -500 -503 -504 -505 -506 -507 -508 -509 -514 -516 -517 -518 -519 -520 -521 -522 -523 -524 -525 -526 -527 -528 -529 -530 -531 -532 -533 -534 -535 -536 -537 -538 -539 -540 -541 -542 -543 -544 -545 -546 -547 -548 -549 -550 -551 -552 -553 -554 -555 -556 -557 -558 -559 -560 -561 -562 -563 -564 -565 -566 -567 -568 -569 -570 -571 -572 -573 -574 -575 -576 -577 -578 -579 -580 -581 -582 -583 -585 -586 -587 -588 -589 -590 -591 -593 -594 -595 -596 -597 -598 -599 -600 -603 -604 -605 -606 -607 -608 -609 -610 -611 -612 -616 -617 -618 -622 -624 -625 -626 -627 -628 -629 -639 -640 -641 -642 -643 -644 -646 -650 -661 -662 -669 -671 -672 -676 -682 -684 -685 -686 -692 -695 -697 -698 -700 -703 -704 -707 -710 -713 -714 -715 -716 -718 -722 -724 -731 -732 -733 -734 -735 -740 -741 -745 -750 -756 -759 -760 -763 -765 -766 -786 -795 -799 -801 -810 -811 -813 -815 -818 -822 -824 -825 -832 -839 -842 -861 -868 -871 -874 -888 -897 -900 -901 -902 -908 -910 -911 -917 -923 -929 -932 -934 -949 -950 -968 -971 -972 -976 -981 -985 -991 -995 -1001 -1010 -1014 -1019 -1024 -1033 -1036 -1046 -1048 -1054 -1056 -1064 -1065 -1069 -1078 -1093 -1094 -1099 -1100 -1106 -1107 -1124 -1130 -1133 -1140 -1150 -1151 -1153 -1166 -1168 -1172 -1176 -1177 -1606 -1623 -1717 -1730 -1731 -1745 -1762 -1767 -1779 -1784 -1800 -1834 -1849 -1861 -1876 -1889 -1902 -1912 -1913 -1922 -1941 -1962 -1967 -1981 -2109 -2118 -2129 -2133 -2139 -2140 -2143 -2145 -2146 -2149 -2157 -2167 -2181 -2186 -2188 -2190 -2193 -2199 -2203 -2207 -2209 -2210 -2217 -2219 -2227 -2228 -2229 -2232 -2233 -2234 -2250 -2264 -2267 -2281 -2292 -2294 -2295 -2306 -2307 -2314 -2322 0
-7 -17 -18 -27 -39 -41 -42 -44 -45 -46 -47 -49 -50 -51 -52 -53 -54 -56 -58 -59 -60 -61 -62 -64 -66 -67 -68 -71 -74 -75 -76 -78 -80 -81 -82 -83 -85 -86 -88 -89 -91 -92 -93 -94 -95 -96 -97 -98 -101 -102 -103 -106 -107 -108 -115 -116 -118 -119 -121 -125 -126 -127 -128 -130 -131 -132 -135 -137 -139 -140 -142 -146 -148 -149 -150 -151 -152 -153 -154 -155 -156 -158 -159 -166 -168 -171 -173 -176 -177 -178 -180 -181 -182 -183 -184 -185 -188 -190 -191 -193 -194 -198 -199 -200 -203 -205 -207 -208 -210 -211 -212 -213 -216 -219 -220 -222 -224 -225 -227 -230 -231 -232 -233 -235 -237 -238 -240 -241 -242 -243 -244 -246 -247 -248 -251 -252 -254 -255 -256 -257 -259 -260 -261 -263 -264 -265 -269 -271 -273 -274 -275 -277 -278 -279 -280 -281 -282 -284 -285 -286 -288 -290 -291 -292 -294 -295 -296 -297 -299 -301 -302 -304 -306 -307 -308 -309 -310 -313 -314 -315 -316 -317 -318 -319 -321 -324 -326 -327 -328 -329 -333 -338 -340 -341 -343 -380 -381 -413 -415 -424 -432 -436 -441 -446 -447 -449 -452 -453 -456 -457 -458 -459 -460 -461 -462 -471 -472 -473 -477 -478 -479 -483 -484 -485 -486 -488 -492 -493 -495 -497 -498 -499 -500 -503 -504 -505 -506 -507 -508 -509 -514 -516 -517 -518 -519 -520 -521 -522 -523 -524 -525 -526 -527 -528 -529 -530 -531 -532 -533 -534 -535 -536 -537 -538 -539 -540 -541 -542 -543 -544 -545 -546 -547 -548 -549 -550 -551 -552 -553 -554 -555 -556 -557 -558 -559 -560 -561 -562 -563 -564 -565 -566 -567 -568 -569 -570 -571 -572 -573 -574 -575 -576 -577 -578 -579 -580 -581 -582 -583 -585 -586 -587 -588 -589 -590 -591 -593 -594 -595 -596 -597 -598 -599 -603 -604 -605 -606 -607 -608 -609 -610 -611 -612 -616 -617 -618 -622 -624 -625 -626 -627 -628 -629 -639 -640 -641 -642 -643 -644 -646 -650 -661 -662 -669 -671 -672 -676 -682 -684 -685 -686 -692 -695 -697 -698 -700 -703 -704 -707 -710 -713 -714 -715 -716 -718 -722 -724 -731 -732 -733 -734 -735 -740 -741 -745 -750 -756 -759 -760 -763 -765 -766 -786 -795 -799 -801 -810 -811 -813 -815 -818 -822 -824 -825 -832 -839 -842 -861 -868 -871 -874 -888 -897 -900 -901 -902 -908 -910 -911 -917 -923 -929 -932 -934 -949 -950 -968 -971 -972 -976 -981 -985 -991 -995 -1001 -1010 -1014 -1019 -1024 -1033 -1036 -1046 -1048 -1054 -1056 -1064 -1065 -1069 -1078 -1093 -1094 -1099 -1100 -1106 -1107 -1124 -1130 -1133 -1140 -1150 -1151 -1153 -1166 -1168 -1172 -1176 -1177 -1606 -1623 -1717 -1730 -1731 -1745 -1762 -1767 -1779 -1784 -1800 -1834 -1849 -1861 -1876 -1889 -1902 -1912 -1913 -1922 -1941 -1962 -1967 -1981 -2109 -2111 -2118 -2129 -2132 -2133 -2139 -2140 -2143 -2145 -2146 -2149 -2157 -2167 -2181 -2186 -2188 -2190 -2191 -2193 -2199 -2207 -2209 -2210 -2217 -2219 -2227 -2228 -2232 -2233 -2234 -2244 -2250 -2264 -2267 -2281 -2292 -2294 -2295 -2306 -2307 -2310 -2314 -2322 -2365 0
-7 -15 -17 -18 -26 -27 -39 -41 -42 -44 -45 -46 -47 -49 -50 -51 -52 -53 -54 -56 -58 -59 -60 -61 -62 -64 -66 -67 -68 -71 -74 -75 -76 -78 -80 -81 -82 -83 -85 -86 -88 -89 -91 -92 -93 -94 -95 -96 -97 -98 -101 -102 -103 -106 -107 -108 -115 -116 -118 -119 -121 -125 -126 -127 -128 -130 -131 -132 -135 -137 -139 -140 -142 -146 -148 -149 -150 -151 -152 -153 -154 -155 -156 -158 -159 -166 -168 -171 -173 -176 -177 -178 -180 -181 -182 -183 -184 -185 -188 -190 -191 -193 -194 -198 -199 -200 -203 -205 -207 -208 -210 -211 -212 -213 -216 -219 -220 -222 -224 -225 -227 -230 -231 -232 -233 -235 -237 -238 -240 -241 -242 -243 -244 -246 -247 -248 -251 -252 -254 -255 -256 -257 -259 -260 -261 -263 -264 -265 -269 -271 -273 -274 -275 -277 -278 -279 -280 -281 -282 -284 -285 -286 -288 -290 -291 -292 -294 -295 -296 -297 -299 -301 -302 -304 -306 -307 -308 -309 -310 -313 -314 -315 -316 -317 -318 -319 -321 -324 -326 -327 -328 -329 -333 -338 -340 -341 -343 -380 -381 -413 -415 -424 -432 -436 -441 -446 -447 -449 -452 -453 -456 -458 -459 -460 -461 -462 -471 -472 -473 -477 -478 -479 -483 -484 -485 -486 -488 -492 -493 -495 -497 -498 -499 -500 -503 -504 -505 -506 -507 -508 -509 -514 -516 -517 -518 -519 -520 -521 -522 -523 -524 -525 -526 -527 -528 -529 -530 -531 -532 -533 -534 -535 -536 -537 -538 -539 -540 -541 -542 -543 -544 -545 -546 -547 -548 -549 -550 -551 -552 -553 -554 -555 -556 -557 -558 -559 -560 -561 -562 -563 -564 -565 -566 -567 -568 -569 -570 -571 -572 -573 -574 -575 -576 -577 -578 -579 -580 -581 -582 -583 -585 -586 -587 -588 -589 -590 -591 -593 -594 -595 -596 -597 -598 -599 -600 -603 -604 -605 -606 -607 -608 -609 -610 -611 -612 -616 -617 -618 -622 -624 -625 -626 -627 -628 -629 -639 -640 -641 -642 -643 -644 -646 -650 -661 -662 -669 -671 -672 -676 -682 -684 -685 -686 -692 -695 -697 -698 -700 -703 -704 -707 -710 -713 -714 -715 -716 -718 -722 -724 -731 -732 -733 -734 -735 -740 -741 -745 -750 -756 -759 -760 -763 -765 -766 -786 -795 -799 -801 -810 -811 -813 -815 -818 -822 -824 -825 -832 -839 -842 -861 -868 -871 -874 -888 -897 -900 -901 -902 -908 -910 -911 -917 -923 -929 -932 -934 -949 -950 -968 -971 -972 -976 -981 -985 -991 -995 -1001 -1010 -1014 -1019 -1024 -1033 -1036 -1046 -1048 -1054 -1056 -1064 -1065 -1069 -1078 -1093 -1094 -1099 -1100 -1106 -1107 -1124 -1130 -1133 -1140 -1150 -1151 -1153 -1166 -1168 -1172 -1176 -1177 -1606 -1623 -1717 -1730 -1731 -1745 -1762 -1767 -1779 -1784 -1800 -1834 -1849 -1861 -1876 -1889 -1902 -1912 -1913 -1922 -1941 -1962 -1967 -1981 -2109 -2118 -2129 -2133 -2139 -2140 -2143 -2145 -2146 -2149 -2157 -2167 -2181 -2186 -2188 -2190 -2193 -2199 -2207 -2209 -2210 -2217 -2219 -2227 -2228 -2232 -2233 -2234 -2244 -2250 -2264 -2267 -2281 -2292 -2294 -2295 -2306 -2307 -2314 -2322 0
-7 -10 -15 -17 -18 -24 -26 -27 -39 -41 -42 -44 -45 -46 -47 -49 -50 -51 -52 -53 -54 -56 -58 -59 -60 -61 -62 -64 -66 -67 -68 -71 -74 -75 -76 -78 -80 -81 -82 -83 -85 -86 -88 -89 -91 -92 -93 -94 -95 -96 -97 -98 -101 -102 -103 -106 -107 -108 -115 -116 -118 -119 -121 -125 -126 -127 -128 -130 -131 -132 -135 -137 -139 -140 -142 -146 -148 -149 -150 -151 -152 -153 -154 -155 -156 -158 -159 -166 -168 -171 -173 -176 -177 -178 -180 -181 -182 -183 -184 -185 -188 -190 -191 -193 -194 -198 -199 -200 -203 -205 -207 -208 -210 -211 -212 -213 -216 -219 -220 -222 -224 -225 -227 -230 -231 -232 -233 -235 -237 -238 -240 -241 -242 -243 -244 -246 -247 -248 -251 -252 -254 -255 -256 -257 -259 -260 -261 -263 -264 -265 -269 -271 -273 -274 -275 -277 -278 -279 -280 -281 -282 -284 -285 -286 -288 -290 -291 -292 -294 -295 -296 -297 -299 -301 -302 -304 -306 -307 -308 -309 -310 -313 -314 -315 -316 -317 -318 -319 -321 -324 -326 -327 -328 -329 -333 -338 -340 -341 -343 -380 -381 -413 -415 -424 -432 -436 -441 -446 -447 -449 -452 -453 -456 -458 -459 -460 -461 -462 -471 -472 -473 -477 -478 -479 -483 -484 -485 -486 -488 -492 -493 -495 -497 -498 -499 -500 -503 -504 -505 -506 -507 -508 -509 -514 -516 -517 -518 -519 -520 -521 -522 -523 -524 -525 -526 -527 -528 -529 -530 -531 -532 -533 -534 -535 -536 -537 -538 -539 -540 -541 -542 -543 -544 -545 -546 -547 -548 -549 -550 -551 -552 -553 -554 -555 -556 -557 -558 -559 -560 -561 -562 -563 -564 -565 -566 -567 -568 -569 -570 -571 -572 -573 -574 -575 -576 -577 -578 -579 -580 -581 -582 -583 -585 -586 -587 -588 -589 -590 -591 -593 -594 -595 -596 -597 -598 -599 -600 -603 -604 -605 -606 -607 -608 -609 -610 -611 -612 -616 -617 -618 -622 -624 -625 -626 -627 -628 -629 -639 -640 -641 -642 -643 -644 -646 -650 -661 -662 -669 -671 -672 -676 -682 -684 -685 -686 -692 -695 -697 -698 -700 -703 -704 -707 -710 -713 -714 -715 -716 -718 -722 -724 -731 -732 -733 -734 -735 -740 -741 -745 -750 -756 -759 -760 -763 -765 -766 -786 -795 -799 -801 -810 -811 -813 -815 -818 -822 -824 -825 -832 -839 -842 -861 -868 -871 -874 -888 -897 -900 -901 -902 -908 -910 -911 -917 -923 -929 -932 -934 -949 -950 -968 -971 -972 -976 -981 -985 -991 -995 -1001 -1010 -1014 -1019 -1024 -1033 -1036 -1046 -1048 -1054 -1056 -1064 -1065 -1069 -1078 -1093 -1094 -1099 -1100 -1106 -1107 -1124 -1130 -1133 -1140 -1150 -1151 -1153 -1166 -1168 -1172 -1176 -1177 -1606 -1623 -1717 -1730 -1731 -1745 -1762 -1767 -1779 -1784 -1800 -1834 -1849 -1861 -1876 -1889 -1902 -1912 -1913 -1922 -1941 -1962 -1967 -1981 -2109 -2118 -2129 -2133 -2139 -2140 -2143 -2145 -2146 -2149 -2157 -2167 -2181 -2186 -2188 -2190 -2193 -2199 -2203 -2207 -2209 -2210 -2217 -2227 -2228 -2232 -2233 -2234 -2244 -2250 -2264 -2267 -2281 -2292 -2294 -2295 -2306 -2307 -2311 -2314 -2322 0
-374 -1524 -5557 0
-11 -374 -1554 -5563 0
-11 -374 -5574 0
-5 -374 -599 -2553 -5578 0
-11 -284 -374 -5581 0
-2560 -5578 0
-534 -561 -2561 -5578 0
-534 -1559 -5563 0
-11 -537 -1560 -5563 0
-8 -15 -538 -1560 -5563 0
-377 -541 -551 -1554 -5563 0
-534 -537 -542 -561 -2391 0
-2 -534 -542 -561 -658 0
-534 -542 -561 -4504 0
-15 -565 -2394 0
-560 -565 -571 -2394 0
-534 -538 -553 -561 -2391 0
-377 -534 -570 -597 -2380 0
-6 -18 -19 -597 -4182 0
-534 -539 -554 -561 -2392 0
-534 -539 -561 -3261 0
-534 -557 -561 -2392 0
-534 -553 -561 -572 -705 0
-5 -496 -576 -599 -603 0
-5 -576 -599 -2391 0
-534 -582 -609 -2392 0
-496 -537 -544 -588 -603 0
-537 -544 -588 -2391 0
-544 -588 -4500 0
-5 -591 -599 -705 0
-496 -534 -561 -605 0
-534 -553 -561 -610 -1942 0
-624 -3899 0
-534 -561 -625 -3899 0
-534 -561 -627 -1985 0
-641 -4366 0
-5 -496 -537 -603 -2118 0
-2 -5 -658 -2118 0
-5 -374 -2118 -2335 0
-534 -959 -2132 0
-2157 -2392 0
-5 -705 -2188 0
-658 -2193 0
-5 -599 -2217 -2394 0
-2244 -3717 0
-1985 -2311 0
-2365 -3899 0
-658 -5578 0
-496 -603 -5581 0
-2391 -5581 0
-534 -561 -601 -3717 0
-5 -658 -1526 -5563 0
-534 -553 -561 -959 -1531 -5563 0
-5 -374 -633 -1534 -5563 0
-553 -559 -568 -1536 -2392 -5563 0
-534 -553 -561 -705 -1537 -5563 0
-658 -1538 -5563 0
-496 -534 -553 -561 -1542 -5563 0
-534 -561 -1551 -3899 -5563 0
-534 -658 -2095 0
-658 -2096 0
-5 -658 -2097 0
-496 -534 -603 -2104 0
-534 -553 -561 -2108 -2391 0
-5 -374 -2112 -2334 0
-377 -534 -561 -2114 -2334 0
-534 -561 -2114 -3261 0
-2 -534 -561 -658 -2120 0
-377 -534 -561 -2120 -2335 0
-534 -537 -561 -2120 -2391 0
-534 -561 -2120 -4504 0
-534 -553 -561 -1081 -2134 0
-534 -561 -959 -2136 0
-374 -633 -2141 0
-5 -374 -633 -2142 0
-534 -536 -561 -658 -2144 0
-377 -534 -561 -633 -2144 0
-534 -541 -561 -2144 -4504 0
-534 -556 -561 -2144 -2392 0
-544 -568 -2148 -4500 0
-534 -2153 -2392 0
-5 -2158 -2392 0
-534 -561 -2161 -2392 0
-553 -559 -568 -2166 -2392 0
-534 -544 -2176 -4504 0
-5 -544 -2178 -4500 0
-534 -544 -561 -2182 -4504 0
-534 -705 -2185 0
-705 -2187 0
-534 -553 -561 -705 -2189 0
-5 -496 -599 -603 -2196 0
-5 -599 -2196 -2391 0
-534 -2104 -2391 0
-2 -658 -2201 0
-496 -537 -603 -2201 0
-374 -2201 -2335 0
-544 -2218 -4500 0
-5 -599 -705 -2223 0
-534 -2242 -3717 0
-534 -553 -561 -2245 -3717 0
-534 -561 -2246 -3717 0
-496 -534 -553 -561 -2251 0
-496 -534 -561 -2252 0
-18 -534 -561 -705 -2258 0
-534 -1915 -2260 0
-5 -1915 -2262 0
-534 -553 -561 -1942 -2265 0
-2304 -3899 0
